[[69, 68, 78, 77, 79, 88, 89, 90, 99, 98, 97, 96, 87, 95, 86, 85, 94, 93, 92, 91], [82, 83, 73, 84, 76, 75, 74, 67, 66, 65, 64, 56, 57, 55, 46, 47, 38, 48], [39, 40, 41, 32, 31, 30, 29, 37, 28, 19, 21, 22, 20, 11, 10, 2, 3, 12, 13, 4, 14, 5], [6, 7, 8, 9, 16, 15, 23, 24, 25, 17, 18, 26, 27, 35, 36, 44, 34, 43, 33, 42], [45, 54, 53, 52, 51, 50, 60, 49, 58, 59, 61, 62, 63, 72, 81, 71, 80, 70]]